s td 383 2 480
b 1 1
b 2 2 246
b 3 2 353
b 4 3 307
b 5 3 354
b 6 353 354
b 7 354
b 8 4
b 9 5
b 10 6 172
b 11 171 172
b 12 172
b 13 7 472
b 14 471 472
b 15 472
b 16 8 272
b 17 9
b 18 10 364
b 19 10 407
b 20 11
b 21 12
b 22 13 421
b 23 14
b 24 15
b 25 16
b 26 17 221
b 27 18 186
b 28 18 292
b 29 18 435
b 30 19 331
b 31 20 191
b 32 191 192
b 33 367 368
b 34 21 367
b 35 21 389
b 36 22
b 37 23 143
b 38 23 310
b 39 23 473
b 40 24 459
b 41 25 293
b 42 25 460
b 43 459 460
b 44 460
b 45 26 393
b 46 27 394
b 47 393 394
b 48 394
b 49 28 398
b 50 28 462
b 51 29
b 52 30 212
b 53 30 400
b 54 399 400
b 55 400
b 56 31
b 57 32
b 58 33 295
b 59 295 296
b 60 34 213
b 61 35
b 62 36 365
b 63 37 297
b 64 38 193
b 65 38 318
b 66 38 390
b 67 39 194
b 68 40 157
b 69 41 158
b 70 41 447
b 71 42 284
b 72 283 284
b 73 284
b 74 43 319
b 75 44 188
b 76 45 177
b 77 46 178
b 78 177 178
b 79 178
b 80 47 241
b 81 47 300
b 82 48 458
b 83 49 131
b 84 49 209
b 85 50
b 86 51 282
b 87 52 174
b 88 52 179
b 89 53 151
b 90 54 357
b 91 55
b 92 56 410
b 93 57 250
b 94 58 301
b 95 58 448
b 96 59 302
b 97 59 467
b 98 60 147
b 99 60 320
b 100 61
b 101 62
b 102 63 315
b 103 63 411
b 104 64 242
b 105 64 412
b 106 65 225
b 107 66 226
b 108 225 226
b 109 226
b 110 67
b 111 68
b 112 69 470
b 113 469 470
b 114 470
b 115 70 152
b 116 71
b 117 72 182
b 118 73 449
b 119 74 215
b 120 215 216
b 121 75 477
b 122 76 228
b 123 77 251
b 124 78 229
b 125 217 218
b 126 79 217
b 127 229 230
b 128 79 230
b 129 79 401
b 130 80
b 131 81
b 132 82 162
b 133 82 196
b 134 83 166
b 135 84 480
b 136 85 253
b 137 253 254
b 138 86 190
b 139 87 350
b 140 88 231
b 141 231 232
b 142 89 155
b 143 90 156
b 144 91 233
b 145 91 374
b 146 373 374
b 147 374
b 148 92 199
b 149 93 200
b 150 93 219
b 151 94
b 152 95 351
b 153 96
b 154 97 201
b 155 98 164
b 156 99 287
b 157 303 304
b 158 100 304
b 159 100 339
b 160 101 417
b 161 102 418
b 162 103
b 163 104 268
b 164 105 348
b 165 347 348
b 166 348
b 167 106 203
b 168 107
b 169 108
b 170 109 243
b 171 110 244
b 172 110 453
b 173 333 334
b 174 111 333
b 175 111 454
b 176 112 236
b 177 235 236
b 178 236
b 179 113
b 180 169 170
b 181 114 170
b 182 114 277
b 183 277 278
b 184 115
b 185 116
b 186 117
b 187 118
b 188 119 343
b 189 120 139
b 190 121 433
b 191 433 434
b 192 122 205
b 193 122 388
b 194 123
b 195 124
b 196 125
b 197 255 256
b 198 126 256
b 199 126 257
b 200 127
b 201 128 270
b 202 129
b 203 130
b 204 132
b 205 133 134
b 206 135
b 207 136
b 208 137
b 209 138
b 210 140
b 211 141 142
b 212 144
b 213 145 146
b 214 148
b 215 149
b 216 150
b 217 153 154
b 218 159
b 219 160
b 220 161
b 221 163
b 222 165
b 223 167
b 224 168
b 225 173
b 226 175
b 227 176
b 228 180
b 229 181
b 230 183
b 231 184
b 232 185
b 233 187
b 234 189
b 235 195
b 236 197 198
b 237 202
b 238 204
b 239 206
b 240 207
b 241 208
b 242 210
b 243 211
b 244 214
b 245 220
b 246 222
b 247 223 224
b 248 227
b 249 234
b 250 237 238
b 251 239 240
b 252 245
b 253 247
b 254 248
b 255 249
b 256 252
b 257 258
b 258 259 260
b 259 261 262
b 260 263
b 261 264
b 262 265
b 263 266
b 264 267
b 265 269
b 266 271
b 267 273 274
b 268 275 276
b 269 279
b 270 280
b 271 281
b 272 285
b 273 286
b 274 288
b 275 289
b 276 290
b 277 291
b 278 294
b 279 298
b 280 299
b 281 305
b 282 306
b 283 308
b 284 309
b 285 311
b 286 312
b 287 313
b 288 314
b 289 316
b 290 317
b 291 321
b 292 322
b 293 323 324
b 294 325
b 295 326
b 296 327
b 297 328
b 298 329
b 299 330
b 300 332
b 301 335
b 302 336
b 303 337 338
b 304 340
b 305 341
b 306 342
b 307 344
b 308 345
b 309 346
b 310 349
b 311 352
b 312 355
b 313 356
b 314 358
b 315 359
b 316 360
b 317 361
b 318 362
b 319 363
b 320 366
b 321 369 370
b 322 371
b 323 372
b 324 375 376
b 325 377 378
b 326 379
b 327 380
b 328 381
b 329 382
b 330 383
b 331 384
b 332 385
b 333 386
b 334 387
b 335 391 392
b 336 395 396
b 337 397
b 338 402
b 339 403
b 340 404
b 341 405
b 342 406
b 343 408
b 344 409
b 345 413
b 346 414
b 347 415
b 348 416
b 349 419
b 350 420
b 351 422
b 352 423
b 353 424
b 354 425
b 355 426
b 356 427 428
b 357 429
b 358 430
b 359 431 432
b 360 436
b 361 437
b 362 438
b 363 439
b 364 440
b 365 441
b 366 442
b 367 443 444
b 368 445
b 369 446
b 370 450
b 371 451
b 372 452
b 373 455
b 374 456
b 375 457
b 376 461
b 377 463 464
b 378 465 466
b 379 468
b 380 474
b 381 475 476
b 382 478
b 383 479
1 2
1 8
1 9
1 10
1 13
1 16
1 17
1 18
1 20
1 21
1 22
1 23
1 24
1 25
1 26
1 27
1 30
1 31
1 33
1 36
1 37
1 40
1 45
1 49
1 51
1 52
1 56
1 57
1 58
1 60
1 61
1 62
1 63
1 64
1 67
1 68
1 69
1 71
1 74
1 75
1 76
1 80
1 82
1 83
1 85
1 86
1 87
1 89
1 90
1 91
1 92
1 93
1 94
1 96
1 98
1 100
1 101
1 102
1 104
1 106
1 110
1 111
1 112
1 115
1 116
1 117
1 118
1 119
1 121
1 122
1 123
1 124
1 130
1 131
1 132
1 134
1 135
1 136
1 138
1 139
1 140
1 142
1 143
1 144
1 148
1 149
1 151
1 152
1 153
1 154
1 155
1 156
1 157
1 160
1 161
1 162
1 163
1 164
1 167
1 168
1 169
1 170
1 171
1 173
1 176
1 179
1 180
1 184
1 185
1 186
1 187
1 188
1 189
1 190
1 192
1 194
1 195
1 196
1 197
1 200
1 201
1 202
1 203
1 204
1 205
1 206
1 207
1 208
1 209
1 210
1 211
1 212
1 213
1 214
1 215
1 216
1 217
1 218
1 219
1 220
1 221
1 222
1 223
1 224
1 225
1 226
1 227
1 228
1 229
1 230
1 231
1 232
1 233
1 234
1 235
1 236
1 237
1 238
1 239
1 240
1 241
1 242
1 243
1 244
1 245
1 246
1 247
1 248
1 249
1 250
1 251
1 252
1 253
1 254
1 255
1 256
1 257
1 258
1 259
1 260
1 261
1 262
1 263
1 264
1 265
1 266
1 267
1 268
1 269
1 270
1 271
1 272
1 273
1 274
1 275
1 276
1 277
1 278
1 279
1 280
1 281
1 282
1 283
1 284
1 285
1 286
1 287
1 288
1 289
1 290
1 291
1 292
1 293
1 294
1 295
1 296
1 297
1 298
1 299
1 300
1 301
1 302
1 303
1 304
1 305
1 306
1 307
1 308
1 309
1 310
1 311
1 312
1 313
1 314
1 315
1 316
1 317
1 318
1 319
1 320
1 321
1 322
1 323
1 324
1 325
1 326
1 327
1 328
1 329
1 330
1 331
1 332
1 333
1 334
1 335
1 336
1 337
1 338
1 339
1 340
1 341
1 342
1 343
1 344
1 345
1 346
1 347
1 348
1 349
1 350
1 351
1 352
1 353
1 354
1 355
1 356
1 357
1 358
1 359
1 360
1 361
1 362
1 363
1 364
1 365
1 366
1 367
1 368
1 369
1 370
1 371
1 372
1 373
1 374
1 375
1 376
1 377
1 378
1 379
1 380
1 381
1 382
1 383
2 3
3 6
4 5
5 7
6 7
10 12
11 12
13 15
14 15
18 19
27 29
28 29
31 32
33 34
34 35
37 39
38 39
40 43
41 42
42 44
43 44
45 47
46 48
47 48
49 50
52 53
53 55
54 55
58 59
64 66
65 66
69 70
71 73
72 73
76 78
77 79
78 79
80 81
83 84
87 88
94 95
96 97
98 99
102 103
104 105
106 108
107 109
108 109
112 114
113 114
119 120
124 127
125 126
126 129
127 128
128 129
132 133
136 137
140 141
144 145
145 147
146 147
149 150
157 158
158 159
164 166
165 166
171 172
173 174
174 175
176 178
177 178
180 181
181 182
182 183
190 191
192 193
197 198
198 199
